c preprocessed version of 1bx7_graph, 34 vertices, 172 edges
p td 34 172
1 0
5 0
6 0
29 0
28 0
0 3
0 17
0 7
0 12
2 1
4 1
10 1
1 8
1 18
1 3
1 21
1 13
1 12
1 28
1 6
1 5
2 3
2 4
2 8
2 9
2 18
2 21
2 13
2 12
2 10
4 3
10 3
3 18
13 3
21 3
28 3
4 5
4 14
4 9
4 8
4 21
4 13
4 20
4 12
4 10
5 6
10 5
5 8
5 7
5 12
5 28
5 29
6 7
6 12
6 28
6 29
7 8
12 7
7 17
16 7
8 9
10 8
12 8
17 8
20 8
13 8
11 8
8 14
16 8
27 8
10 9
12 9
20 9
13 9
11 9
9 14
15 9
10 11
10 21
10 13
10 20
10 17
10 12
12 11
17 11
20 11
19 11
13 11
18 11
11 14
15 11
16 11
22 11
26 11
27 11
12 13
12 17
16 12
13 14
19 13
13 18
20 13
13 21
15 14
19 14
20 14
26 14
25 14
27 14
15 16
15 20
15 23
24 15
27 15
16 17
23 16
27 16
17 18
17 19
17 20
22 17
27 17
19 18
21 18
27 18
20 19
19 21
22 19
26 19
27 19
20 21
22 20
26 20
25 20
27 20
22 23
24 22
22 26
22 25
22 27
24 23
27 23
24 25
24 26
27 24
26 25
25 27
26 27
29 28
30 0
30 28
30 32
30 29
30 6
30 33
30 31
31 33
31 32
31 1
31 4
31 2
31 3
32 33
32 6
32 29
32 28
33 1
33 3
33 21
33 28
33 10
33 2
